; benchmark generated from python API
(set-info :status unknown)
(declare-fun S_5 () Real)
(declare-fun S_3 () Real)
(declare-fun C () Real)
(declare-fun S_1 () Real)
(declare-fun S_4 () Real)
(declare-fun S_2 () Real)
(declare-fun S_0 () Real)
(declare-fun A_0 () Real)
(declare-fun L_0 () Real)
(declare-fun B () Real)
(declare-fun L0 () Real)
(declare-fun A_5 () Real)
(declare-fun Q_5 () Real)
(declare-fun A_1 () Real)
(declare-fun A_2 () Real)
(declare-fun A_4 () Real)
(declare-fun A_3 () Real)
(declare-fun L_1 () Real)
(assert
 (let (($x40724 (>= (+ (* (- 1.0) B) (* (- 1.0) C) (* (- 1.0) S_2) S_5) 0.0)))
 (let (($x42 (>= L0 0.0)))
 (let (($x406 (>= C 5.0)))
 (let (($x38227 (<= A_1 (+ (* (- 4.0) C) (* (- 1.0) Q_5) A_5))))
 (let ((?x610 (* (- 1.0) Q_5)))
 (let ((?x2270 (* (- 5.0) C)))
 (let ((?x726 (* (- 1.0) L_0)))
 (let ((?x526 (+ ?x726 ?x2270 ?x610 A_5)))
 (let (($x36884 (<= S_0 ?x526)))
 (let (($x1188 (<= Q_5 0.0)))
 (let (($x40392 (= (+ (* 4.0 C) A_1 Q_5 (* (- 1.0) A_5)) 0.0)))
 (let ((?x666 (* (- 1.0) B)))
 (let (($x39842 (<= (+ ?x610 A_5 (* (- 1.0) A_2) (* (- 3.0) C)) ?x666)))
 (let (($x38639 (= (+ Q_5 ?x666 A_4 C (* (- 1.0) A_5)) 0.0)))
 (let (($x38395 (<= (+ (* (- 1.0) C) (* (- 1.0) A_2) A_3) 0.0)))
 (let (($x38120 (not $x38395)))
 (let (($x38111 (not $x38227)))
 (let (($x2325 (= Q_5 B)))
 (let (($x38589 (>= S_0 (+ ?x726 (* (- 6.0) C) ?x610 A_5))))
 (let (($x1008 (<= L_1 L_0)))
 (let (($x1011 (not $x1008)))
 (let ((?x1352 (* (- 2.0) C)))
 (let ((?x38401 (+ ?x726 ?x1352 ?x610 A_5)))
 (let (($x38400 (>= S_4 ?x38401)))
 (let ((?x2254 (* (- 3.0) C)))
 (let ((?x38211 (+ ?x726 ?x2254 ?x610 A_5)))
 (let (($x38212 (>= S_3 ?x38211)))
 (let (($x37764 (<= (+ ?x1352 A_4 (* (- 1.0) A_2)) 0.0)))
 (let (($x453 (<= (+ A_4 (* (- 1.0) A_3) (* (- 1.0) C)) 0.0)))
 (let ((?x2258 (* (- 4.0) C)))
 (let ((?x38403 (+ ?x726 ?x2258 ?x610 A_5)))
 (let (($x38402 (>= S_2 ?x38403)))
 (let ((?x301 (* (- 1.0) C)))
 (let ((?x38265 (+ ?x726 ?x301 ?x610 A_5)))
 (let (($x35954 (>= S_5 ?x38265)))
 (let (($x38679 (<= (+ A_5 (* (- 1.0) A_3) ?x1352) 0.0)))
 (let (($x39066 (not $x38679)))
 (let (($x38463 (= ?x666 (+ ?x610 A_5 (* (- 1.0) A_3) ?x1352))))
 (let (($x38627 (not $x453)))
 (let (($x94438 (or $x1011 $x38212 $x38395 $x38627 $x39066 (not (<= (+ ?x666 ?x301 ?x726 (* (- 1.0) S_3) A_3) 0.0)))))
 (let (($x582 (<= (+ ?x2270 ?x610 A_5) A_0)))
 (let (($x92117 (or $x582 $x1011 $x38395 $x38627 $x39066 (not (<= (+ ?x666 ?x2254 (* (- 1.0) A_0) A_3) 0.0)))))
 (let (($x38545 (not $x37764)))
 (let (($x38518 (<= 0.0 (+ (* 3.0 C) (* (- 1.0) A_5) A_2))))
 (let (($x38521 (not $x38518)))
 (let (($x92300 (or (<= (+ (* 4.0 C) (* (- 1.0) S_5) S_0) 0.0) (<= (+ (* 3.0 C) A_1 ?x726 (* (- 1.0) S_5)) 0.0))))
 (let (($x93744 (or $x1011 (not (<= (+ ?x666 ?x726 (* (- 1.0) S_4) A_3) 0.0)) $x38395 $x38400 $x38627 $x39066)))
 (let (($x38946 (<= (+ ?x666 ?x2254 ?x726 (* (- 1.0) S_1) A_3) 0.0)))
 (let (($x38953 (not $x38946)))
 (let (($x38612 (>= S_1 ?x526)))
 (let (($x39105 (<= (+ ?x666 C ?x726 (* (- 1.0) S_5) A_3) 0.0)))
 (let (($x90918 (or $x1011 $x38395 $x38463 $x38589 $x38627 (not (<= (+ A_5 (* (- 1.0) A_4) ?x301) 0.0)))))
 (let ((?x1276 (* (- 1.0) S_0)))
 (let ((?x614 (* (- 1.0) A_5)))
 (let ((?x3218 (* (- 2.0) B)))
 (let (($x90414 (or $x1011 $x38395 $x38463 $x38639 (<= (+ Q_5 ?x3218 A_4 ?x2254 ?x614 ?x726 ?x1276 A_3) 0.0) $x39066)))
 (let (($x38924 (<= (+ ?x666 ?x2254 (* (- 1.0) A_0) A_3) 0.0)))
 (let (($x38904 (<= (+ ?x666 ?x1352 ?x726 (* (- 1.0) S_2) A_3) 0.0)))
 (let (($x38935 (not $x38904)))
 (let (($x41487 (<= 0.0 (+ C (* (- 1.0) A_1) L_0 S_0))))
 (let (($x41494 (not $x41487)))
 (let (($x3256 (<= (+ ?x666 ?x726 (* (- 1.0) S_4) A_3) 0.0)))
 (let (($x38817 (<= (+ ?x666 ?x301 ?x726 (* (- 1.0) S_3) A_3) 0.0)))
 (let (($x92122 (or (<= (+ (* 2.0 C) A_1 (* (- 1.0) S_4) ?x726) 0.0) $x41494)))
 (let (($x40081 (<= (+ A_5 (* (- 1.0) A_3) ?x1352 Q_5) B)))
 (let (($x40846 (not $x40081)))
 (let (($x38732 (<= (+ A_5 (* (- 1.0) A_4) ?x301) 0.0)))
 (let (($x38723 (<= (+ A_3 (* (- 1.0) A_2) ?x301 Q_5) B)))
 (let (($x38964 (not $x38723)))
 (let (($x92746 (or (<= (+ C A_1 ?x726 (* (- 1.0) S_3)) 0.0) (<= (+ (* 2.0 C) (* (- 1.0) S_3) S_0) 0.0))))
 (let (($x93394 (or $x2325 $x38111 $x38395 $x38732 (<= 0.0 (+ ?x666 ?x1352 (* (- 1.0) A_1) A_3)) $x40392)))
 (let (($x92599 (or $x2325 $x38395 $x38679 $x38732 (<= (+ ?x2258 (* (- 1.0) A_1) A_5 ?x666) 0.0))))
 (let (($x90441 (or (<= (+ A_1 ?x726 (* (- 1.0) S_2)) 0.0) (<= (+ C (* (- 1.0) S_2) S_0) 0.0))))
 (let (($x38563 (<= (+ A_2 (* (- 1.0) A_1) ?x301) 0.0)))
 (let (($x38572 (not $x38563)))
 (let (($x38571 (<= (+ A_3 (* (- 1.0) A_1) ?x1352) 0.0)))
 (let (($x93673 (or $x1008 $x2325 $x38572 $x38639 (not $x38571) (= (+ (* (- 1.0) A_1) B ?x2258 ?x610 A_5) 0.0) (not (<= (+ A_1 (* 4.0 C) Q_5 ?x614) B)))))
 (let (($x4273 (= Q_5 0.0)))
 (let (($x39051 (or (not $x1188) $x4273)))
 (let (($x59 (= L_1 L_0)))
 (let (($x41 (>= L_0 L0)))
 (let (($x131 (>= S_1 S_0)))
 (let (($x134 (>= S_2 S_1)))
 (let (($x137 (>= S_3 S_2)))
 (let (($x140 (>= S_4 S_3)))
 (let (($x143 (>= S_5 S_4)))
 (let (($x145 (>= A_1 A_0)))
 (let (($x147 (>= A_3 A_2)))
 (let (($x148 (>= A_4 A_3)))
 (let (($x149 (>= A_5 A_4)))
 (and (<= (+ A_1 (* (- 1.0) L_1)) S_5) $x149 $x148 $x147 $x145 $x143 $x140 $x137 $x134 $x131 $x41 (or $x59 (<= S_1 (+ A_1 (* (- 1.0) L_1) ?x666))) (<= Q_5 B) (or (not (= L_0 L_1)) (>= S_3 (+ A_1 ?x726 ?x666 C))) (or (not (= L_0 L_1)) (<= (+ ?x666 A_1 ?x301) A_0)) (or (not (= L_0 L_1)) (>= S_1 (+ ?x666 ?x726 A_1 ?x301))) (not (<= 0.0 (+ ?x666 C (* (- 1.0) S_4) S_5))) (not (<= (+ A_2 (* (- 1.0) L_1)) S_5)) (not (<= 0.0 (+ ?x666 ?x301 (* (- 1.0) A_1) L_0 S_5))) (or $x59 $x1011) (or $x59 (<= S_0 (+ ?x666 (* (- 1.0) L_1) A_1 ?x301))) (or $x2325 (not (<= A_4 (+ ?x301 ?x610 A_5)))) (or $x59 (<= S_2 (+ A_1 (* (- 1.0) L_1) ?x666 C))) (<= (+ ?x666 (* (- 1.0) L_1) A_1 ?x301) (+ A_0 ?x726)) (>= S_1 (+ ?x666 (* (- 1.0) L_1) A_1 ?x301)) (>= S_4 (+ A_1 (* (- 1.0) L_1) ?x666 (* 2.0 C))) (or $x59 $x453 $x2325 $x38395 $x38563 $x38639) (>= S_5 (+ A_1 (* (- 1.0) L_1) ?x666 (* 3.0 C))) (or $x59 (<= S_3 (+ A_1 (* (- 1.0) L_1) ?x666 (* 2.0 C)))) (>= S_2 (+ A_1 (* (- 1.0) L_1) ?x666)) (or $x59 (<= S_4 (+ A_1 (* (- 1.0) L_1) ?x666 (* 3.0 C)))) (or $x59 (<= S_5 (+ A_1 (* (- 1.0) L_1) ?x666 (* 4.0 C)))) (>= S_0 (+ ?x666 (* (- 1.0) L_1) A_1 ?x1352)) (>= S_3 (+ A_1 (* (- 1.0) L_1) ?x666 C)) (or $x59 (not (<= (+ A_1 (* (- 1.0) L_1) C) S_5))) $x39051 (or $x59 $x38395 $x38463 $x38563 $x38639 $x39066) (or $x59 $x2325 $x38395 $x38463 $x38563 $x38732) (<= (+ ?x1352 S_4 (* (- 1.0) S_3)) 0.0) (<= (+ A_4 C Q_5 ?x614) B) (<= (+ A_3 (* 2.0 C) Q_5 ?x614) B) (or $x1188 (<= (+ A_1 (* 4.0 C) Q_5 ?x614) B)) (or $x1008 $x2325 $x38571 $x38572 $x38679 $x38732) (or $x453 $x1008 $x2325 $x38571 $x38572 $x38639) (or $x59 $x2325 $x38120 $x38518 $x38563 $x38639) (or $x59 $x38120 $x38521 $x38563 $x38639 $x39842) $x93673 (or $x1008 $x38463 $x38571 $x38572 $x38639 $x39066) (or (not $x4273) $x38395) (or $x1011 $x2325 $x35954 $x38395 $x38627 $x40081) (or $x1011 $x35954 $x38395 $x38627 (not $x39105) $x40846) (<= (+ ?x301 (* (- 1.0) A_1) L_0 S_2) 0.0) (<= (+ (* (- 1.0) A_1) L_0 S_1) 0.0) (<= (+ ?x1352 S_2 (* (- 1.0) S_1)) 0.0) (<= (+ ?x2254 S_3 (* (- 1.0) S_1)) 0.0) (<= (+ ?x1352 L_0 S_2 (* (- 1.0) A_0)) 0.0) (not (<= 0.0 (+ ?x666 ?x1352 L_0 S_5 (* (- 1.0) A_0)))) (or $x1188 (<= S_2 ?x38211)) (or $x1188 (<= S_1 ?x38403)) $x90441 (or $x1011 $x38395 $x38463 $x38589 $x38732 $x39066) (<= (+ ?x2258 S_3 ?x1276) 0.0) (or $x1011 $x2325 $x38395 $x38679 $x38732 $x38904) (or $x1011 $x2325 $x38395 $x38589 $x38679 $x38732) $x92599 $x93394 (not (<= 0.0 (+ ?x666 ?x1352 S_5 (* (- 1.0) S_1)))) (<= (+ ?x2254 L_0 S_3 (* (- 1.0) A_0)) 0.0) (or (<= (+ (* 3.0 C) (* (- 1.0) S_4) S_0) 0.0) $x41487) (<= S_5 (+ ?x726 ?x610 A_5)) (or $x1188 (<= S_3 ?x38401)) (<= (+ ?x2254 S_2 ?x1276) 0.0) $x92746 (or $x1011 $x2325 $x38395 $x38400 $x38732 $x40081) (or $x1011 $x2325 $x38395 $x38612 $x38732 $x40081) (or $x1011 $x2325 $x38395 $x38402 $x38732 $x40081) (or $x1011 $x2325 $x38212 $x38395 $x38732 $x40081) (or $x582 $x1011 $x2325 $x38395 $x38732 $x40081) (or $x1011 $x38395 $x38402 $x38732 $x38935 $x40846) (or $x1011 $x38395 $x38679 $x38732 $x38946 $x40846) (or $x1011 $x38395 $x38400 $x38679 $x38732 $x40846) (or $x582 $x1011 $x38395 $x38679 $x38732 $x40846) (or (not (= L_0 L_1)) $x38612 $x38723 $x38732 $x38953 $x40846) (or $x1011 $x38395 $x38612 $x38732 $x38953 $x38964) (or (not (= L_0 L_1)) $x38212 $x38679 $x38723 $x38732 $x40846) (or $x1011 $x38212 $x38395 $x38679 $x38732 $x38964) (or $x1011 $x38395 $x38679 $x38732 $x39105 $x40846) (or $x453 $x1011 $x2325 $x38395 $x38400 $x38639) (or $x453 $x1011 $x2325 $x38395 $x38589 $x38639) (or $x453 $x582 $x1011 $x2325 $x38395 $x38639) (or $x453 $x1011 $x2325 $x38395 $x38612 $x38639) (or $x453 $x2325 $x38111 $x38395 $x38639 $x40392) $x92122 (or $x1011 $x38395 $x38463 $x38627 $x38817 $x39066) (or $x1011 $x3256 $x38395 $x38463 $x38627 $x39066) (not (<= 0.0 (+ ?x666 ?x2254 S_5 ?x1276))) (or $x38227 $x38395 $x41494) (or $x1188 (<= (+ A_2 (* 3.0 C) Q_5 ?x614) B)) (not (<= 0.0 (+ ?x666 (* 2.0 C)))) (or $x1011 $x38395 $x38463 $x38639 $x38946 $x39066) (<= (+ ?x1352 (* (- 1.0) S_4) S_5) 0.0) (<= (+ ?x2258 L_0 S_4 (* (- 1.0) A_0)) 0.0) (<= (+ ?x2254 (* (- 1.0) A_1) S_4 L_0) 0.0) (<= (+ (* 3.0 C) (* (- 1.0) S_5) S_1) 0.0) (or $x36884 $x38395 $x41487) (<= (+ ?x2258 S_4 (* (- 1.0) S_1)) 0.0) (<= (+ ?x2270 S_4 ?x1276) 0.0) (or $x1011 $x38395 $x38463 $x38639 $x38904 $x39066) (or $x1011 $x38395 $x38402 $x38627 $x38935 $x39066) (<= (+ ?x1352 (* (- 1.0) A_1) L_0 S_3) 0.0) (or $x1011 $x38395 $x38463 $x38639 $x38924 $x39066) $x90414 $x90918 (or $x1011 $x38395 $x38463 $x38639 $x39066 $x39105) (<= (+ ?x2270 S_5 (* (- 1.0) S_1)) 0.0) (<= (+ ?x2258 (* (- 1.0) A_1) L_0 S_5) 0.0) (<= (+ ?x2270 L_0 S_5 (* (- 1.0) A_0)) 0.0) (<= (+ ?x2258 (* (- 1.0) S_2) S_5) 0.0) (<= (+ ?x2254 (* (- 1.0) S_3) S_5) 0.0) (<= (+ (* (- 6.0) C) S_5 ?x1276) 0.0) (<= (+ (* 2.0 C) S_2 (* (- 1.0) S_5)) 0.0) (or $x1011 $x38395 $x38612 $x38627 $x38953 $x39066) $x93744 $x92300 (or $x1011 $x38120 $x38402 $x38521 $x38545 $x39842) (or $x1011 $x2325 $x38120 $x38400 $x38545 $x39842) (or $x1011 $x2325 $x35954 $x38120 $x38545 $x39842) (or $x1011 $x2325 $x38120 $x38212 $x38545 $x39842) (or $x1011 $x2325 $x38120 $x38402 $x38545 $x39842) (or $x582 $x1011 $x2325 $x38120 $x38545 $x39842) (or $x1011 $x2325 $x38120 $x38545 $x38612 $x39842) (or $x1011 $x2325 $x38120 $x38545 $x38589 $x39842) (or $x2325 $x38111 $x38120 $x38545 $x39842 $x40392) $x92117 $x94438 (or $x38111 $x38395 $x38463 $x38639 $x39066 $x40392) (or $x1188 (<= S_4 ?x38265)) (or $x453 $x1011 $x2325 $x35954 $x37764 $x38639) (or $x453 $x1011 $x2325 $x37764 $x38402 $x38639) (or $x453 $x1011 $x2325 $x37764 $x38212 $x38639) (or $x1011 $x2325 $x38120 $x38400 $x38639 $x39842) (or $x582 $x1011 $x2325 $x38120 $x38639 $x39842) (or $x1011 $x2325 $x38120 $x38612 $x38639 $x39842) (or $x1011 $x2325 $x38120 $x38589 $x38639 $x39842) (or $x2325 $x38111 $x38120 $x38639 $x39842 $x40392) (or $x1188 $x36884 $x38227) $x406 $x42 (not (>= (+ ?x666 (* (- 1.0) S_3) S_5) 0.0)) (not $x40724) (<= (+ L_0 S_0 (* (- 1.0) A_0)) 0.0) (<= (+ ?x2254 S_4 (* (- 1.0) S_2)) 0.0) (<= (+ C (* (- 1.0) S_3) S_1) 0.0) (<= (+ ?x301 L_0 S_1 (* (- 1.0) A_0)) 0.0) (<= (+ ?x1352 S_1 ?x1276) 0.0) (<= (+ C (* (- 1.0) S_4) S_2) 0.0) (<= (+ ?x1352 S_3 (* (- 1.0) S_2)) 0.0) (<= (+ (* 2.0 C) (* (- 1.0) S_4) S_1) 0.0) (<= (+ C S_3 (* (- 1.0) S_5)) 0.0)))))))))))))))))))))))))))))))))))))))))))))))))))))))))))))))))))))))))))))))))))))))))))))
(check-sat)
